c instance by G2
c solution = 101011001110110
c Known solution cost is 599 
p cnf 15 30
w 1 57 17 68 20 25 76 76 7 11 72 97 35 12 25
-4 14 -2 0
10 7 -13 0
-8 15 -10 0
6 8 2 0
-2 10 -5 0
-11 -15 -13 0
2 -4 -6 0
10 7 -9 0
-1 7 11 0
4 9 -3 0
-5 -2 4 0
10 9 -12 0
-15 -14 -12 0
11 -3 8 0
-5 2 -4 0
9 3 -13 0
-14 -7 -6 0
-2 -13 4 0
-3 4 5 0
8 1 -6 0
-1 7 13 0
-10 3 -9 0
1 -3 -9 0
-12 2 -5 0
10 -8 1 0
-2 10 7 0
13 -2 9 0
-10 -5 14 0
-13 1 -10 0
2 3 -9 0
